18
p-toluic-acid.mol
C     -1.1376879833    1.2500983402   -0.0902447268
C      0.2593655716    1.2366894785   -0.0582524699
C      0.9565442629    0.0233945138    0.0074157222
C      0.2384739579   -1.1797618014    0.0305740280
C     -1.1575164444   -1.1709199738   -0.0001222539
C     -1.8471001232    0.0440838998   -0.0435582432
C      2.4572203393   -0.0039828368    0.0218487875
C     -3.3277348554    0.0119835754   -0.0827844951
O     -3.9612148549   -0.8466737850   -0.6716145720
O     -3.9013359043    0.9961259092    0.6412737222
H     -1.6541640953    2.2021626307   -0.1837816313
H      0.8020490715    2.1790593718   -0.1015910531
H      0.7644059026   -2.1322206636    0.0620482133
H     -1.7047851277   -2.1118008672    0.0068523248
H      2.8766873699    1.0060642797    0.0739557468
H      2.8326761526   -0.4801259890   -0.8896563746
H      2.8173488301   -0.5596839084    0.8935803264
H     -3.2833454897    1.4956271189    1.2061451101
